c t pmc
c file mc2022_track3_159.cnf
p cnf 165 1684
c p show 7 9 19 22 25 27 31 33 37 41 51 55 61 63 67 68 69 70 73 75 85 88 92 97 101 103 104 106 120 125 130 131 134 136 144 146 158 159 160 163 0
-1 56 -111 0
1 -56 -111 0
-1 -56 -111 0
-2 57 -112 0
2 -57 -112 0
-2 -57 -112 0
-3 58 -113 0
3 -58 -113 0
-3 -58 -113 0
-4 59 -114 0
4 -59 -114 0
-4 -59 -114 0
-5 60 -115 0
5 -60 -115 0
-5 -60 -115 0
-6 61 -116 0
6 -61 -116 0
-6 -61 -116 0
-7 62 -117 0
7 -62 -117 0
-7 -62 -117 0
-8 63 -118 0
8 -63 -118 0
-8 -63 -118 0
-9 64 -119 0
9 -64 -119 0
-9 -64 -119 0
-10 65 -120 0
10 -65 -120 0
-10 -65 -120 0
-11 66 -121 0
11 -66 -121 0
-11 -66 -121 0
-12 67 -122 0
12 -67 -122 0
-12 -67 -122 0
-13 68 -123 0
13 -68 -123 0
-13 -68 -123 0
-14 69 -124 0
14 -69 -124 0
-14 -69 -124 0
-15 70 -125 0
15 -70 -125 0
-15 -70 -125 0
-16 71 -126 0
16 -71 -126 0
-16 -71 -126 0
-17 72 -127 0
17 -72 -127 0
-17 -72 -127 0
-18 73 -128 0
18 -73 -128 0
-18 -73 -128 0
-19 74 -129 0
19 -74 -129 0
-19 -74 -129 0
-20 75 -130 0
20 -75 -130 0
-20 -75 -130 0
-21 76 -131 0
21 -76 -131 0
-21 -76 -131 0
-22 77 -132 0
22 -77 -132 0
-22 -77 -132 0
-23 78 -133 0
23 -78 -133 0
-23 -78 -133 0
-24 79 -134 0
24 -79 -134 0
-24 -79 -134 0
-25 80 -135 0
25 -80 -135 0
-25 -80 -135 0
-26 81 -136 0
26 -81 -136 0
-26 -81 -136 0
-27 82 -137 0
27 -82 -137 0
-27 -82 -137 0
-28 83 -138 0
28 -83 -138 0
-28 -83 -138 0
-29 84 -139 0
29 -84 -139 0
-29 -84 -139 0
-30 85 -140 0
30 -85 -140 0
-30 -85 -140 0
-31 86 -141 0
31 -86 -141 0
-31 -86 -141 0
-32 87 -142 0
32 -87 -142 0
-32 -87 -142 0
-33 88 -143 0
33 -88 -143 0
-33 -88 -143 0
-34 89 -144 0
34 -89 -144 0
-34 -89 -144 0
-35 90 -145 0
35 -90 -145 0
-35 -90 -145 0
-36 91 -146 0
36 -91 -146 0
-36 -91 -146 0
-37 92 -147 0
37 -92 -147 0
-37 -92 -147 0
-38 93 -148 0
38 -93 -148 0
-38 -93 -148 0
-39 94 -149 0
39 -94 -149 0
-39 -94 -149 0
-40 95 -150 0
40 -95 -150 0
-40 -95 -150 0
-41 96 -151 0
41 -96 -151 0
-41 -96 -151 0
-42 97 -152 0
42 -97 -152 0
-42 -97 -152 0
-43 98 -153 0
43 -98 -153 0
-43 -98 -153 0
-44 99 -154 0
44 -99 -154 0
-44 -99 -154 0
-45 100 -155 0
45 -100 -155 0
-45 -100 -155 0
-46 101 -156 0
46 -101 -156 0
-46 -101 -156 0
-47 102 -157 0
47 -102 -157 0
-47 -102 -157 0
-48 103 -158 0
48 -103 -158 0
-48 -103 -158 0
-49 104 -159 0
49 -104 -159 0
-49 -104 -159 0
-50 105 -160 0
50 -105 -160 0
-50 -105 -160 0
-51 106 -161 0
51 -106 -161 0
-51 -106 -161 0
-52 107 -162 0
52 -107 -162 0
-52 -107 -162 0
-53 108 -163 0
53 -108 -163 0
-53 -108 -163 0
-54 109 -164 0
54 -109 -164 0
-54 -109 -164 0
-55 110 -165 0
55 -110 -165 0
-55 -110 -165 0
-1 0
-56 0
-111 0
18 0
-73 0
-128 0
-19 0
74 0
-129 0
1 56 111 18 73 128 0
-1 56 111 -18 73 128 0
1 -56 111 18 -73 128 0
-1 -56 111 -18 -73 128 0
1 56 -111 18 73 -128 0
1 56 111 30 85 140 0
-1 56 111 -30 85 140 0
1 -56 111 30 -85 140 0
-1 -56 111 -30 -85 140 0
1 56 -111 30 85 -140 0
1 56 111 33 88 143 0
-1 56 111 -33 88 143 0
1 -56 111 33 -88 143 0
-1 -56 111 -33 -88 143 0
1 56 -111 33 88 -143 0
1 56 111 28 83 138 0
-1 56 111 -28 83 138 0
1 -56 111 28 -83 138 0
-1 -56 111 -28 -83 138 0
1 56 -111 28 83 -138 0
1 56 111 19 74 129 0
-1 56 111 -19 74 129 0
1 -56 111 19 -74 129 0
-1 -56 111 -19 -74 129 0
1 56 -111 19 74 -129 0
1 56 111 55 110 165 0
-1 56 111 -55 110 165 0
1 -56 111 55 -110 165 0
-1 -56 111 -55 -110 165 0
1 56 -111 55 110 -165 0
1 56 111 31 86 141 0
-1 56 111 -31 86 141 0
1 -56 111 31 -86 141 0
-1 -56 111 -31 -86 141 0
1 56 -111 31 86 -141 0
1 56 111 28 83 138 0
-1 56 111 -28 83 138 0
1 -56 111 28 -83 138 0
-1 -56 111 -28 -83 138 0
1 56 -111 28 83 -138 0
1 56 111 50 105 160 0
-1 56 111 -50 105 160 0
1 -56 111 50 -105 160 0
-1 -56 111 -50 -105 160 0
1 56 -111 50 105 -160 0
1 56 111 19 74 129 0
-1 56 111 -19 74 129 0
1 -56 111 19 -74 129 0
-1 -56 111 -19 -74 129 0
1 56 -111 19 74 -129 0
1 56 111 23 78 133 0
-1 56 111 -23 78 133 0
1 -56 111 23 -78 133 0
-1 -56 111 -23 -78 133 0
1 56 -111 23 78 -133 0
2 57 112 46 101 156 0
-2 57 112 -46 101 156 0
2 -57 112 46 -101 156 0
-2 -57 112 -46 -101 156 0
2 57 -112 46 101 -156 0
2 57 112 38 93 148 0
-2 57 112 -38 93 148 0
2 -57 112 38 -93 148 0
-2 -57 112 -38 -93 148 0
2 57 -112 38 93 -148 0
2 57 112 18 73 128 0
-2 57 112 -18 73 128 0
2 -57 112 18 -73 128 0
-2 -57 112 -18 -73 128 0
2 57 -112 18 73 -128 0
2 57 112 22 77 132 0
-2 57 112 -22 77 132 0
2 -57 112 22 -77 132 0
-2 -57 112 -22 -77 132 0
2 57 -112 22 77 -132 0
2 57 112 26 81 136 0
-2 57 112 -26 81 136 0
2 -57 112 26 -81 136 0
-2 -57 112 -26 -81 136 0
2 57 -112 26 81 -136 0
2 57 112 20 75 130 0
-2 57 112 -20 75 130 0
2 -57 112 20 -75 130 0
-2 -57 112 -20 -75 130 0
2 57 -112 20 75 -130 0
2 57 112 52 107 162 0
-2 57 112 -52 107 162 0
2 -57 112 52 -107 162 0
-2 -57 112 -52 -107 162 0
2 57 -112 52 107 -162 0
2 57 112 43 98 153 0
-2 57 112 -43 98 153 0
2 -57 112 43 -98 153 0
-2 -57 112 -43 -98 153 0
2 57 -112 43 98 -153 0
2 57 112 9 64 119 0
-2 57 112 -9 64 119 0
2 -57 112 9 -64 119 0
-2 -57 112 -9 -64 119 0
2 57 -112 9 64 -119 0
2 57 112 28 83 138 0
-2 57 112 -28 83 138 0
2 -57 112 28 -83 138 0
-2 -57 112 -28 -83 138 0
2 57 -112 28 83 -138 0
2 57 112 20 75 130 0
-2 57 112 -20 75 130 0
2 -57 112 20 -75 130 0
-2 -57 112 -20 -75 130 0
2 57 -112 20 75 -130 0
3 58 113 23 78 133 0
-3 58 113 -23 78 133 0
3 -58 113 23 -78 133 0
-3 -58 113 -23 -78 133 0
3 58 -113 23 78 -133 0
3 58 113 7 62 117 0
-3 58 113 -7 62 117 0
3 -58 113 7 -62 117 0
-3 -58 113 -7 -62 117 0
3 58 -113 7 62 -117 0
3 58 113 38 93 148 0
-3 58 113 -38 93 148 0
3 -58 113 38 -93 148 0
-3 -58 113 -38 -93 148 0
3 58 -113 38 93 -148 0
3 58 113 23 78 133 0
-3 58 113 -23 78 133 0
3 -58 113 23 -78 133 0
-3 -58 113 -23 -78 133 0
3 58 -113 23 78 -133 0
3 58 113 26 81 136 0
-3 58 113 -26 81 136 0
3 -58 113 26 -81 136 0
-3 -58 113 -26 -81 136 0
3 58 -113 26 81 -136 0
3 58 113 17 72 127 0
-3 58 113 -17 72 127 0
3 -58 113 17 -72 127 0
-3 -58 113 -17 -72 127 0
3 58 -113 17 72 -127 0
3 58 113 18 73 128 0
-3 58 113 -18 73 128 0
3 -58 113 18 -73 128 0
-3 -58 113 -18 -73 128 0
3 58 -113 18 73 -128 0
3 58 113 24 79 134 0
-3 58 113 -24 79 134 0
3 -58 113 24 -79 134 0
-3 -58 113 -24 -79 134 0
3 58 -113 24 79 -134 0
3 58 113 49 104 159 0
-3 58 113 -49 104 159 0
3 -58 113 49 -104 159 0
-3 -58 113 -49 -104 159 0
3 58 -113 49 104 -159 0
3 58 113 16 71 126 0
-3 58 113 -16 71 126 0
3 -58 113 16 -71 126 0
-3 -58 113 -16 -71 126 0
3 58 -113 16 71 -126 0
3 58 113 39 94 149 0
-3 58 113 -39 94 149 0
3 -58 113 39 -94 149 0
-3 -58 113 -39 -94 149 0
3 58 -113 39 94 -149 0
4 59 114 12 67 122 0
-4 59 114 -12 67 122 0
4 -59 114 12 -67 122 0
-4 -59 114 -12 -67 122 0
4 59 -114 12 67 -122 0
4 59 114 24 79 134 0
-4 59 114 -24 79 134 0
4 -59 114 24 -79 134 0
-4 -59 114 -24 -79 134 0
4 59 -114 24 79 -134 0
4 59 114 46 101 156 0
-4 59 114 -46 101 156 0
4 -59 114 46 -101 156 0
-4 -59 114 -46 -101 156 0
4 59 -114 46 101 -156 0
4 59 114 10 65 120 0
-4 59 114 -10 65 120 0
4 -59 114 10 -65 120 0
-4 -59 114 -10 -65 120 0
4 59 -114 10 65 -120 0
4 59 114 50 105 160 0
-4 59 114 -50 105 160 0
4 -59 114 50 -105 160 0
-4 -59 114 -50 -105 160 0
4 59 -114 50 105 -160 0
4 59 114 20 75 130 0
-4 59 114 -20 75 130 0
4 -59 114 20 -75 130 0
-4 -59 114 -20 -75 130 0
4 59 -114 20 75 -130 0
4 59 114 22 77 132 0
-4 59 114 -22 77 132 0
4 -59 114 22 -77 132 0
-4 -59 114 -22 -77 132 0
4 59 -114 22 77 -132 0
4 59 114 43 98 153 0
-4 59 114 -43 98 153 0
4 -59 114 43 -98 153 0
-4 -59 114 -43 -98 153 0
4 59 -114 43 98 -153 0
4 59 114 22 77 132 0
-4 59 114 -22 77 132 0
4 -59 114 22 -77 132 0
-4 -59 114 -22 -77 132 0
4 59 -114 22 77 -132 0
4 59 114 10 65 120 0
-4 59 114 -10 65 120 0
4 -59 114 10 -65 120 0
-4 -59 114 -10 -65 120 0
4 59 -114 10 65 -120 0
4 59 114 26 81 136 0
-4 59 114 -26 81 136 0
4 -59 114 26 -81 136 0
-4 -59 114 -26 -81 136 0
4 59 -114 26 81 -136 0
5 60 115 6 61 116 0
-5 60 115 -6 61 116 0
5 -60 115 6 -61 116 0
-5 -60 115 -6 -61 116 0
5 60 -115 6 61 -116 0
5 60 115 45 100 155 0
-5 60 115 -45 100 155 0
5 -60 115 45 -100 155 0
-5 -60 115 -45 -100 155 0
5 60 -115 45 100 -155 0
5 60 115 51 106 161 0
-5 60 115 -51 106 161 0
5 -60 115 51 -106 161 0
-5 -60 115 -51 -106 161 0
5 60 -115 51 106 -161 0
5 60 115 53 108 163 0
-5 60 115 -53 108 163 0
5 -60 115 53 -108 163 0
-5 -60 115 -53 -108 163 0
5 60 -115 53 108 -163 0
5 60 115 9 64 119 0
-5 60 115 -9 64 119 0
5 -60 115 9 -64 119 0
-5 -60 115 -9 -64 119 0
5 60 -115 9 64 -119 0
5 60 115 7 62 117 0
-5 60 115 -7 62 117 0
5 -60 115 7 -62 117 0
-5 -60 115 -7 -62 117 0
5 60 -115 7 62 -117 0
5 60 115 52 107 162 0
-5 60 115 -52 107 162 0
5 -60 115 52 -107 162 0
-5 -60 115 -52 -107 162 0
5 60 -115 52 107 -162 0
5 60 115 50 105 160 0
-5 60 115 -50 105 160 0
5 -60 115 50 -105 160 0
-5 -60 115 -50 -105 160 0
5 60 -115 50 105 -160 0
5 60 115 17 72 127 0
-5 60 115 -17 72 127 0
5 -60 115 17 -72 127 0
-5 -60 115 -17 -72 127 0
5 60 -115 17 72 -127 0
5 60 115 53 108 163 0
-5 60 115 -53 108 163 0
5 -60 115 53 -108 163 0
-5 -60 115 -53 -108 163 0
5 60 -115 53 108 -163 0
5 60 115 27 82 137 0
-5 60 115 -27 82 137 0
5 -60 115 27 -82 137 0
-5 -60 115 -27 -82 137 0
5 60 -115 27 82 -137 0
6 61 116 27 82 137 0
-6 61 116 -27 82 137 0
6 -61 116 27 -82 137 0
-6 -61 116 -27 -82 137 0
6 61 -116 27 82 -137 0
6 61 116 37 92 147 0
-6 61 116 -37 92 147 0
6 -61 116 37 -92 147 0
-6 -61 116 -37 -92 147 0
6 61 -116 37 92 -147 0
6 61 116 46 101 156 0
-6 61 116 -46 101 156 0
6 -61 116 46 -101 156 0
-6 -61 116 -46 -101 156 0
6 61 -116 46 101 -156 0
6 61 116 26 81 136 0
-6 61 116 -26 81 136 0
6 -61 116 26 -81 136 0
-6 -61 116 -26 -81 136 0
6 61 -116 26 81 -136 0
6 61 116 41 96 151 0
-6 61 116 -41 96 151 0
6 -61 116 41 -96 151 0
-6 -61 116 -41 -96 151 0
6 61 -116 41 96 -151 0
6 61 116 49 104 159 0
-6 61 116 -49 104 159 0
6 -61 116 49 -104 159 0
-6 -61 116 -49 -104 159 0
6 61 -116 49 104 -159 0
6 61 116 13 68 123 0
-6 61 116 -13 68 123 0
6 -61 116 13 -68 123 0
-6 -61 116 -13 -68 123 0
6 61 -116 13 68 -123 0
6 61 116 45 100 155 0
-6 61 116 -45 100 155 0
6 -61 116 45 -100 155 0
-6 -61 116 -45 -100 155 0
6 61 -116 45 100 -155 0
6 61 116 55 110 165 0
-6 61 116 -55 110 165 0
6 -61 116 55 -110 165 0
-6 -61 116 -55 -110 165 0
6 61 -116 55 110 -165 0
6 61 116 52 107 162 0
-6 61 116 -52 107 162 0
6 -61 116 52 -107 162 0
-6 -61 116 -52 -107 162 0
6 61 -116 52 107 -162 0
7 62 117 34 89 144 0
-7 62 117 -34 89 144 0
7 -62 117 34 -89 144 0
-7 -62 117 -34 -89 144 0
7 62 -117 34 89 -144 0
7 62 117 23 78 133 0
-7 62 117 -23 78 133 0
7 -62 117 23 -78 133 0
-7 -62 117 -23 -78 133 0
7 62 -117 23 78 -133 0
7 62 117 14 69 124 0
-7 62 117 -14 69 124 0
7 -62 117 14 -69 124 0
-7 -62 117 -14 -69 124 0
7 62 -117 14 69 -124 0
7 62 117 43 98 153 0
-7 62 117 -43 98 153 0
7 -62 117 43 -98 153 0
-7 -62 117 -43 -98 153 0
7 62 -117 43 98 -153 0
7 62 117 42 97 152 0
-7 62 117 -42 97 152 0
7 -62 117 42 -97 152 0
-7 -62 117 -42 -97 152 0
7 62 -117 42 97 -152 0
7 62 117 34 89 144 0
-7 62 117 -34 89 144 0
7 -62 117 34 -89 144 0
-7 -62 117 -34 -89 144 0
7 62 -117 34 89 -144 0
7 62 117 36 91 146 0
-7 62 117 -36 91 146 0
7 -62 117 36 -91 146 0
-7 -62 117 -36 -91 146 0
7 62 -117 36 91 -146 0
7 62 117 28 83 138 0
-7 62 117 -28 83 138 0
7 -62 117 28 -83 138 0
-7 -62 117 -28 -83 138 0
7 62 -117 28 83 -138 0
7 62 117 36 91 146 0
-7 62 117 -36 91 146 0
7 -62 117 36 -91 146 0
-7 -62 117 -36 -91 146 0
7 62 -117 36 91 -146 0
8 63 118 34 89 144 0
-8 63 118 -34 89 144 0
8 -63 118 34 -89 144 0
-8 -63 118 -34 -89 144 0
8 63 -118 34 89 -144 0
8 63 118 20 75 130 0
-8 63 118 -20 75 130 0
8 -63 118 20 -75 130 0
-8 -63 118 -20 -75 130 0
8 63 -118 20 75 -130 0
8 63 118 37 92 147 0
-8 63 118 -37 92 147 0
8 -63 118 37 -92 147 0
-8 -63 118 -37 -92 147 0
8 63 -118 37 92 -147 0
8 63 118 47 102 157 0
-8 63 118 -47 102 157 0
8 -63 118 47 -102 157 0
-8 -63 118 -47 -102 157 0
8 63 -118 47 102 -157 0
8 63 118 23 78 133 0
-8 63 118 -23 78 133 0
8 -63 118 23 -78 133 0
-8 -63 118 -23 -78 133 0
8 63 -118 23 78 -133 0
8 63 118 20 75 130 0
-8 63 118 -20 75 130 0
8 -63 118 20 -75 130 0
-8 -63 118 -20 -75 130 0
8 63 -118 20 75 -130 0
8 63 118 54 109 164 0
-8 63 118 -54 109 164 0
8 -63 118 54 -109 164 0
-8 -63 118 -54 -109 164 0
8 63 -118 54 109 -164 0
8 63 118 9 64 119 0
-8 63 118 -9 64 119 0
8 -63 118 9 -64 119 0
-8 -63 118 -9 -64 119 0
8 63 -118 9 64 -119 0
8 63 118 40 95 150 0
-8 63 118 -40 95 150 0
8 -63 118 40 -95 150 0
-8 -63 118 -40 -95 150 0
8 63 -118 40 95 -150 0
8 63 118 35 90 145 0
-8 63 118 -35 90 145 0
8 -63 118 35 -90 145 0
-8 -63 118 -35 -90 145 0
8 63 -118 35 90 -145 0
8 63 118 24 79 134 0
-8 63 118 -24 79 134 0
8 -63 118 24 -79 134 0
-8 -63 118 -24 -79 134 0
8 63 -118 24 79 -134 0
9 64 119 21 76 131 0
-9 64 119 -21 76 131 0
9 -64 119 21 -76 131 0
-9 -64 119 -21 -76 131 0
9 64 -119 21 76 -131 0
9 64 119 16 71 126 0
-9 64 119 -16 71 126 0
9 -64 119 16 -71 126 0
-9 -64 119 -16 -71 126 0
9 64 -119 16 71 -126 0
9 64 119 35 90 145 0
-9 64 119 -35 90 145 0
9 -64 119 35 -90 145 0
-9 -64 119 -35 -90 145 0
9 64 -119 35 90 -145 0
9 64 119 39 94 149 0
-9 64 119 -39 94 149 0
9 -64 119 39 -94 149 0
-9 -64 119 -39 -94 149 0
9 64 -119 39 94 -149 0
9 64 119 36 91 146 0
-9 64 119 -36 91 146 0
9 -64 119 36 -91 146 0
-9 -64 119 -36 -91 146 0
9 64 -119 36 91 -146 0
9 64 119 43 98 153 0
-9 64 119 -43 98 153 0
9 -64 119 43 -98 153 0
-9 -64 119 -43 -98 153 0
9 64 -119 43 98 -153 0
9 64 119 48 103 158 0
-9 64 119 -48 103 158 0
9 -64 119 48 -103 158 0
-9 -64 119 -48 -103 158 0
9 64 -119 48 103 -158 0
9 64 119 53 108 163 0
-9 64 119 -53 108 163 0
9 -64 119 53 -108 163 0
-9 -64 119 -53 -108 163 0
9 64 -119 53 108 -163 0
10 65 120 15 70 125 0
-10 65 120 -15 70 125 0
10 -65 120 15 -70 125 0
-10 -65 120 -15 -70 125 0
10 65 -120 15 70 -125 0
10 65 120 36 91 146 0
-10 65 120 -36 91 146 0
10 -65 120 36 -91 146 0
-10 -65 120 -36 -91 146 0
10 65 -120 36 91 -146 0
10 65 120 49 104 159 0
-10 65 120 -49 104 159 0
10 -65 120 49 -104 159 0
-10 -65 120 -49 -104 159 0
10 65 -120 49 104 -159 0
10 65 120 15 70 125 0
-10 65 120 -15 70 125 0
10 -65 120 15 -70 125 0
-10 -65 120 -15 -70 125 0
10 65 -120 15 70 -125 0
10 65 120 25 80 135 0
-10 65 120 -25 80 135 0
10 -65 120 25 -80 135 0
-10 -65 120 -25 -80 135 0
10 65 -120 25 80 -135 0
10 65 120 22 77 132 0
-10 65 120 -22 77 132 0
10 -65 120 22 -77 132 0
-10 -65 120 -22 -77 132 0
10 65 -120 22 77 -132 0
10 65 120 32 87 142 0
-10 65 120 -32 87 142 0
10 -65 120 32 -87 142 0
-10 -65 120 -32 -87 142 0
10 65 -120 32 87 -142 0
10 65 120 29 84 139 0
-10 65 120 -29 84 139 0
10 -65 120 29 -84 139 0
-10 -65 120 -29 -84 139 0
10 65 -120 29 84 -139 0
10 65 120 26 81 136 0
-10 65 120 -26 81 136 0
10 -65 120 26 -81 136 0
-10 -65 120 -26 -81 136 0
10 65 -120 26 81 -136 0
11 66 121 47 102 157 0
-11 66 121 -47 102 157 0
11 -66 121 47 -102 157 0
-11 -66 121 -47 -102 157 0
11 66 -121 47 102 -157 0
11 66 121 34 89 144 0
-11 66 121 -34 89 144 0
11 -66 121 34 -89 144 0
-11 -66 121 -34 -89 144 0
11 66 -121 34 89 -144 0
11 66 121 21 76 131 0
-11 66 121 -21 76 131 0
11 -66 121 21 -76 131 0
-11 -66 121 -21 -76 131 0
11 66 -121 21 76 -131 0
11 66 121 51 106 161 0
-11 66 121 -51 106 161 0
11 -66 121 51 -106 161 0
-11 -66 121 -51 -106 161 0
11 66 -121 51 106 -161 0
11 66 121 21 76 131 0
-11 66 121 -21 76 131 0
11 -66 121 21 -76 131 0
-11 -66 121 -21 -76 131 0
11 66 -121 21 76 -131 0
11 66 121 23 78 133 0
-11 66 121 -23 78 133 0
11 -66 121 23 -78 133 0
-11 -66 121 -23 -78 133 0
11 66 -121 23 78 -133 0
11 66 121 22 77 132 0
-11 66 121 -22 77 132 0
11 -66 121 22 -77 132 0
-11 -66 121 -22 -77 132 0
11 66 -121 22 77 -132 0
11 66 121 38 93 148 0
-11 66 121 -38 93 148 0
11 -66 121 38 -93 148 0
-11 -66 121 -38 -93 148 0
11 66 -121 38 93 -148 0
11 66 121 38 93 148 0
-11 66 121 -38 93 148 0
11 -66 121 38 -93 148 0
-11 -66 121 -38 -93 148 0
11 66 -121 38 93 -148 0
11 66 121 33 88 143 0
-11 66 121 -33 88 143 0
11 -66 121 33 -88 143 0
-11 -66 121 -33 -88 143 0
11 66 -121 33 88 -143 0
11 66 121 35 90 145 0
-11 66 121 -35 90 145 0
11 -66 121 35 -90 145 0
-11 -66 121 -35 -90 145 0
11 66 -121 35 90 -145 0
12 67 122 27 82 137 0
-12 67 122 -27 82 137 0
12 -67 122 27 -82 137 0
-12 -67 122 -27 -82 137 0
12 67 -122 27 82 -137 0
12 67 122 26 81 136 0
-12 67 122 -26 81 136 0
12 -67 122 26 -81 136 0
-12 -67 122 -26 -81 136 0
12 67 -122 26 81 -136 0
12 67 122 43 98 153 0
-12 67 122 -43 98 153 0
12 -67 122 43 -98 153 0
-12 -67 122 -43 -98 153 0
12 67 -122 43 98 -153 0
12 67 122 21 76 131 0
-12 67 122 -21 76 131 0
12 -67 122 21 -76 131 0
-12 -67 122 -21 -76 131 0
12 67 -122 21 76 -131 0
12 67 122 17 72 127 0
-12 67 122 -17 72 127 0
12 -67 122 17 -72 127 0
-12 -67 122 -17 -72 127 0
12 67 -122 17 72 -127 0
12 67 122 35 90 145 0
-12 67 122 -35 90 145 0
12 -67 122 35 -90 145 0
-12 -67 122 -35 -90 145 0
12 67 -122 35 90 -145 0
12 67 122 45 100 155 0
-12 67 122 -45 100 155 0
12 -67 122 45 -100 155 0
-12 -67 122 -45 -100 155 0
12 67 -122 45 100 -155 0
12 67 122 48 103 158 0
-12 67 122 -48 103 158 0
12 -67 122 48 -103 158 0
-12 -67 122 -48 -103 158 0
12 67 -122 48 103 -158 0
12 67 122 31 86 141 0
-12 67 122 -31 86 141 0
12 -67 122 31 -86 141 0
-12 -67 122 -31 -86 141 0
12 67 -122 31 86 -141 0
12 67 122 53 108 163 0
-12 67 122 -53 108 163 0
12 -67 122 53 -108 163 0
-12 -67 122 -53 -108 163 0
12 67 -122 53 108 -163 0
13 68 123 37 92 147 0
-13 68 123 -37 92 147 0
13 -68 123 37 -92 147 0
-13 -68 123 -37 -92 147 0
13 68 -123 37 92 -147 0
13 68 123 39 94 149 0
-13 68 123 -39 94 149 0
13 -68 123 39 -94 149 0
-13 -68 123 -39 -94 149 0
13 68 -123 39 94 -149 0
13 68 123 38 93 148 0
-13 68 123 -38 93 148 0
13 -68 123 38 -93 148 0
-13 -68 123 -38 -93 148 0
13 68 -123 38 93 -148 0
13 68 123 26 81 136 0
-13 68 123 -26 81 136 0
13 -68 123 26 -81 136 0
-13 -68 123 -26 -81 136 0
13 68 -123 26 81 -136 0
13 68 123 22 77 132 0
-13 68 123 -22 77 132 0
13 -68 123 22 -77 132 0
-13 -68 123 -22 -77 132 0
13 68 -123 22 77 -132 0
13 68 123 29 84 139 0
-13 68 123 -29 84 139 0
13 -68 123 29 -84 139 0
-13 -68 123 -29 -84 139 0
13 68 -123 29 84 -139 0
13 68 123 17 72 127 0
-13 68 123 -17 72 127 0
13 -68 123 17 -72 127 0
-13 -68 123 -17 -72 127 0
13 68 -123 17 72 -127 0
13 68 123 37 92 147 0
-13 68 123 -37 92 147 0
13 -68 123 37 -92 147 0
-13 -68 123 -37 -92 147 0
13 68 -123 37 92 -147 0
13 68 123 37 92 147 0
-13 68 123 -37 92 147 0
13 -68 123 37 -92 147 0
-13 -68 123 -37 -92 147 0
13 68 -123 37 92 -147 0
13 68 123 41 96 151 0
-13 68 123 -41 96 151 0
13 -68 123 41 -96 151 0
-13 -68 123 -41 -96 151 0
13 68 -123 41 96 -151 0
14 69 124 30 85 140 0
-14 69 124 -30 85 140 0
14 -69 124 30 -85 140 0
-14 -69 124 -30 -85 140 0
14 69 -124 30 85 -140 0
14 69 124 50 105 160 0
-14 69 124 -50 105 160 0
14 -69 124 50 -105 160 0
-14 -69 124 -50 -105 160 0
14 69 -124 50 105 -160 0
14 69 124 26 81 136 0
-14 69 124 -26 81 136 0
14 -69 124 26 -81 136 0
-14 -69 124 -26 -81 136 0
14 69 -124 26 81 -136 0
14 69 124 34 89 144 0
-14 69 124 -34 89 144 0
14 -69 124 34 -89 144 0
-14 -69 124 -34 -89 144 0
14 69 -124 34 89 -144 0
14 69 124 19 74 129 0
-14 69 124 -19 74 129 0
14 -69 124 19 -74 129 0
-14 -69 124 -19 -74 129 0
14 69 -124 19 74 -129 0
14 69 124 25 80 135 0
-14 69 124 -25 80 135 0
14 -69 124 25 -80 135 0
-14 -69 124 -25 -80 135 0
14 69 -124 25 80 -135 0
14 69 124 53 108 163 0
-14 69 124 -53 108 163 0
14 -69 124 53 -108 163 0
-14 -69 124 -53 -108 163 0
14 69 -124 53 108 -163 0
14 69 124 32 87 142 0
-14 69 124 -32 87 142 0
14 -69 124 32 -87 142 0
-14 -69 124 -32 -87 142 0
14 69 -124 32 87 -142 0
14 69 124 27 82 137 0
-14 69 124 -27 82 137 0
14 -69 124 27 -82 137 0
-14 -69 124 -27 -82 137 0
14 69 -124 27 82 -137 0
14 69 124 25 80 135 0
-14 69 124 -25 80 135 0
14 -69 124 25 -80 135 0
-14 -69 124 -25 -80 135 0
14 69 -124 25 80 -135 0
15 70 125 36 91 146 0
-15 70 125 -36 91 146 0
15 -70 125 36 -91 146 0
-15 -70 125 -36 -91 146 0
15 70 -125 36 91 -146 0
15 70 125 48 103 158 0
-15 70 125 -48 103 158 0
15 -70 125 48 -103 158 0
-15 -70 125 -48 -103 158 0
15 70 -125 48 103 -158 0
15 70 125 39 94 149 0
-15 70 125 -39 94 149 0
15 -70 125 39 -94 149 0
-15 -70 125 -39 -94 149 0
15 70 -125 39 94 -149 0
15 70 125 16 71 126 0
-15 70 125 -16 71 126 0
15 -70 125 16 -71 126 0
-15 -70 125 -16 -71 126 0
15 70 -125 16 71 -126 0
15 70 125 21 76 131 0
-15 70 125 -21 76 131 0
15 -70 125 21 -76 131 0
-15 -70 125 -21 -76 131 0
15 70 -125 21 76 -131 0
15 70 125 54 109 164 0
-15 70 125 -54 109 164 0
15 -70 125 54 -109 164 0
-15 -70 125 -54 -109 164 0
15 70 -125 54 109 -164 0
15 70 125 55 110 165 0
-15 70 125 -55 110 165 0
15 -70 125 55 -110 165 0
-15 -70 125 -55 -110 165 0
15 70 -125 55 110 -165 0
15 70 125 32 87 142 0
-15 70 125 -32 87 142 0
15 -70 125 32 -87 142 0
-15 -70 125 -32 -87 142 0
15 70 -125 32 87 -142 0
15 70 125 38 93 148 0
-15 70 125 -38 93 148 0
15 -70 125 38 -93 148 0
-15 -70 125 -38 -93 148 0
15 70 -125 38 93 -148 0
16 71 126 29 84 139 0
-16 71 126 -29 84 139 0
16 -71 126 29 -84 139 0
-16 -71 126 -29 -84 139 0
16 71 -126 29 84 -139 0
16 71 126 50 105 160 0
-16 71 126 -50 105 160 0
16 -71 126 50 -105 160 0
-16 -71 126 -50 -105 160 0
16 71 -126 50 105 -160 0
16 71 126 31 86 141 0
-16 71 126 -31 86 141 0
16 -71 126 31 -86 141 0
-16 -71 126 -31 -86 141 0
16 71 -126 31 86 -141 0
16 71 126 33 88 143 0
-16 71 126 -33 88 143 0
16 -71 126 33 -88 143 0
-16 -71 126 -33 -88 143 0
16 71 -126 33 88 -143 0
16 71 126 49 104 159 0
-16 71 126 -49 104 159 0
16 -71 126 49 -104 159 0
-16 -71 126 -49 -104 159 0
16 71 -126 49 104 -159 0
16 71 126 21 76 131 0
-16 71 126 -21 76 131 0
16 -71 126 21 -76 131 0
-16 -71 126 -21 -76 131 0
16 71 -126 21 76 -131 0
16 71 126 25 80 135 0
-16 71 126 -25 80 135 0
16 -71 126 25 -80 135 0
-16 -71 126 -25 -80 135 0
16 71 -126 25 80 -135 0
16 71 126 29 84 139 0
-16 71 126 -29 84 139 0
16 -71 126 29 -84 139 0
-16 -71 126 -29 -84 139 0
16 71 -126 29 84 -139 0
17 72 127 39 94 149 0
-17 72 127 -39 94 149 0
17 -72 127 39 -94 149 0
-17 -72 127 -39 -94 149 0
17 72 -127 39 94 -149 0
17 72 127 18 73 128 0
-17 72 127 -18 73 128 0
17 -72 127 18 -73 128 0
-17 -72 127 -18 -73 128 0
17 72 -127 18 73 -128 0
17 72 127 29 84 139 0
-17 72 127 -29 84 139 0
17 -72 127 29 -84 139 0
-17 -72 127 -29 -84 139 0
17 72 -127 29 84 -139 0
17 72 127 54 109 164 0
-17 72 127 -54 109 164 0
17 -72 127 54 -109 164 0
-17 -72 127 -54 -109 164 0
17 72 -127 54 109 -164 0
17 72 127 33 88 143 0
-17 72 127 -33 88 143 0
17 -72 127 33 -88 143 0
-17 -72 127 -33 -88 143 0
17 72 -127 33 88 -143 0
17 72 127 46 101 156 0
-17 72 127 -46 101 156 0
17 -72 127 46 -101 156 0
-17 -72 127 -46 -101 156 0
17 72 -127 46 101 -156 0
17 72 127 43 98 153 0
-17 72 127 -43 98 153 0
17 -72 127 43 -98 153 0
-17 -72 127 -43 -98 153 0
17 72 -127 43 98 -153 0
18 73 128 29 84 139 0
-18 73 128 -29 84 139 0
18 -73 128 29 -84 139 0
-18 -73 128 -29 -84 139 0
18 73 -128 29 84 -139 0
18 73 128 20 75 130 0
-18 73 128 -20 75 130 0
18 -73 128 20 -75 130 0
-18 -73 128 -20 -75 130 0
18 73 -128 20 75 -130 0
18 73 128 45 100 155 0
-18 73 128 -45 100 155 0
18 -73 128 45 -100 155 0
-18 -73 128 -45 -100 155 0
18 73 -128 45 100 -155 0
18 73 128 19 74 129 0
-18 73 128 -19 74 129 0
18 -73 128 19 -74 129 0
-18 -73 128 -19 -74 129 0
18 73 -128 19 74 -129 0
18 73 128 27 82 137 0
-18 73 128 -27 82 137 0
18 -73 128 27 -82 137 0
-18 -73 128 -27 -82 137 0
18 73 -128 27 82 -137 0
18 73 128 19 74 129 0
-18 73 128 -19 74 129 0
18 -73 128 19 -74 129 0
-18 -73 128 -19 -74 129 0
18 73 -128 19 74 -129 0
18 73 128 44 99 154 0
-18 73 128 -44 99 154 0
18 -73 128 44 -99 154 0
-18 -73 128 -44 -99 154 0
18 73 -128 44 99 -154 0
19 74 129 21 76 131 0
-19 74 129 -21 76 131 0
19 -74 129 21 -76 131 0
-19 -74 129 -21 -76 131 0
19 74 -129 21 76 -131 0
19 74 129 40 95 150 0
-19 74 129 -40 95 150 0
19 -74 129 40 -95 150 0
-19 -74 129 -40 -95 150 0
19 74 -129 40 95 -150 0
19 74 129 49 104 159 0
-19 74 129 -49 104 159 0
19 -74 129 49 -104 159 0
-19 -74 129 -49 -104 159 0
19 74 -129 49 104 -159 0
19 74 129 30 85 140 0
-19 74 129 -30 85 140 0
19 -74 129 30 -85 140 0
-19 -74 129 -30 -85 140 0
19 74 -129 30 85 -140 0
19 74 129 23 78 133 0
-19 74 129 -23 78 133 0
19 -74 129 23 -78 133 0
-19 -74 129 -23 -78 133 0
19 74 -129 23 78 -133 0
19 74 129 31 86 141 0
-19 74 129 -31 86 141 0
19 -74 129 31 -86 141 0
-19 -74 129 -31 -86 141 0
19 74 -129 31 86 -141 0
20 75 130 24 79 134 0
-20 75 130 -24 79 134 0
20 -75 130 24 -79 134 0
-20 -75 130 -24 -79 134 0
20 75 -130 24 79 -134 0
20 75 130 34 89 144 0
-20 75 130 -34 89 144 0
20 -75 130 34 -89 144 0
-20 -75 130 -34 -89 144 0
20 75 -130 34 89 -144 0
20 75 130 32 87 142 0
-20 75 130 -32 87 142 0
20 -75 130 32 -87 142 0
-20 -75 130 -32 -87 142 0
20 75 -130 32 87 -142 0
20 75 130 45 100 155 0
-20 75 130 -45 100 155 0
20 -75 130 45 -100 155 0
-20 -75 130 -45 -100 155 0
20 75 -130 45 100 -155 0
20 75 130 39 94 149 0
-20 75 130 -39 94 149 0
20 -75 130 39 -94 149 0
-20 -75 130 -39 -94 149 0
20 75 -130 39 94 -149 0
21 76 131 25 80 135 0
-21 76 131 -25 80 135 0
21 -76 131 25 -80 135 0
-21 -76 131 -25 -80 135 0
21 76 -131 25 80 -135 0
21 76 131 50 105 160 0
-21 76 131 -50 105 160 0
21 -76 131 50 -105 160 0
-21 -76 131 -50 -105 160 0
21 76 -131 50 105 -160 0
21 76 131 43 98 153 0
-21 76 131 -43 98 153 0
21 -76 131 43 -98 153 0
-21 -76 131 -43 -98 153 0
21 76 -131 43 98 -153 0
21 76 131 49 104 159 0
-21 76 131 -49 104 159 0
21 -76 131 49 -104 159 0
-21 -76 131 -49 -104 159 0
21 76 -131 49 104 -159 0
22 77 132 52 107 162 0
-22 77 132 -52 107 162 0
22 -77 132 52 -107 162 0
-22 -77 132 -52 -107 162 0
22 77 -132 52 107 -162 0
22 77 132 28 83 138 0
-22 77 132 -28 83 138 0
22 -77 132 28 -83 138 0
-22 -77 132 -28 -83 138 0
22 77 -132 28 83 -138 0
22 77 132 52 107 162 0
-22 77 132 -52 107 162 0
22 -77 132 52 -107 162 0
-22 -77 132 -52 -107 162 0
22 77 -132 52 107 -162 0
22 77 132 40 95 150 0
-22 77 132 -40 95 150 0
22 -77 132 40 -95 150 0
-22 -77 132 -40 -95 150 0
22 77 -132 40 95 -150 0
22 77 132 54 109 164 0
-22 77 132 -54 109 164 0
22 -77 132 54 -109 164 0
-22 -77 132 -54 -109 164 0
22 77 -132 54 109 -164 0
23 78 133 38 93 148 0
-23 78 133 -38 93 148 0
23 -78 133 38 -93 148 0
-23 -78 133 -38 -93 148 0
23 78 -133 38 93 -148 0
23 78 133 44 99 154 0
-23 78 133 -44 99 154 0
23 -78 133 44 -99 154 0
-23 -78 133 -44 -99 154 0
23 78 -133 44 99 -154 0
23 78 133 44 99 154 0
-23 78 133 -44 99 154 0
23 -78 133 44 -99 154 0
-23 -78 133 -44 -99 154 0
23 78 -133 44 99 -154 0
23 78 133 35 90 145 0
-23 78 133 -35 90 145 0
23 -78 133 35 -90 145 0
-23 -78 133 -35 -90 145 0
23 78 -133 35 90 -145 0
24 79 134 32 87 142 0
-24 79 134 -32 87 142 0
24 -79 134 32 -87 142 0
-24 -79 134 -32 -87 142 0
24 79 -134 32 87 -142 0
24 79 134 45 100 155 0
-24 79 134 -45 100 155 0
24 -79 134 45 -100 155 0
-24 -79 134 -45 -100 155 0
24 79 -134 45 100 -155 0
24 79 134 48 103 158 0
-24 79 134 -48 103 158 0
24 -79 134 48 -103 158 0
-24 -79 134 -48 -103 158 0
24 79 -134 48 103 -158 0
24 79 134 48 103 158 0
-24 79 134 -48 103 158 0
24 -79 134 48 -103 158 0
-24 -79 134 -48 -103 158 0
24 79 -134 48 103 -158 0
24 79 134 37 92 147 0
-24 79 134 -37 92 147 0
24 -79 134 37 -92 147 0
-24 -79 134 -37 -92 147 0
24 79 -134 37 92 -147 0
24 79 134 54 109 164 0
-24 79 134 -54 109 164 0
24 -79 134 54 -109 164 0
-24 -79 134 -54 -109 164 0
24 79 -134 54 109 -164 0
24 79 134 39 94 149 0
-24 79 134 -39 94 149 0
24 -79 134 39 -94 149 0
-24 -79 134 -39 -94 149 0
24 79 -134 39 94 -149 0
25 80 135 34 89 144 0
-25 80 135 -34 89 144 0
25 -80 135 34 -89 144 0
-25 -80 135 -34 -89 144 0
25 80 -135 34 89 -144 0
25 80 135 37 92 147 0
-25 80 135 -37 92 147 0
25 -80 135 37 -92 147 0
-25 -80 135 -37 -92 147 0
25 80 -135 37 92 -147 0
25 80 135 47 102 157 0
-25 80 135 -47 102 157 0
25 -80 135 47 -102 157 0
-25 -80 135 -47 -102 157 0
25 80 -135 47 102 -157 0
25 80 135 50 105 160 0
-25 80 135 -50 105 160 0
25 -80 135 50 -105 160 0
-25 -80 135 -50 -105 160 0
25 80 -135 50 105 -160 0
25 80 135 41 96 151 0
-25 80 135 -41 96 151 0
25 -80 135 41 -96 151 0
-25 -80 135 -41 -96 151 0
25 80 -135 41 96 -151 0
25 80 135 54 109 164 0
-25 80 135 -54 109 164 0
25 -80 135 54 -109 164 0
-25 -80 135 -54 -109 164 0
25 80 -135 54 109 -164 0
26 81 136 37 92 147 0
-26 81 136 -37 92 147 0
26 -81 136 37 -92 147 0
-26 -81 136 -37 -92 147 0
26 81 -136 37 92 -147 0
26 81 136 32 87 142 0
-26 81 136 -32 87 142 0
26 -81 136 32 -87 142 0
-26 -81 136 -32 -87 142 0
26 81 -136 32 87 -142 0
26 81 136 27 82 137 0
-26 81 136 -27 82 137 0
26 -81 136 27 -82 137 0
-26 -81 136 -27 -82 137 0
26 81 -136 27 82 -137 0
27 82 137 28 83 138 0
-27 82 137 -28 83 138 0
27 -82 137 28 -83 138 0
-27 -82 137 -28 -83 138 0
27 82 -137 28 83 -138 0
27 82 137 36 91 146 0
-27 82 137 -36 91 146 0
27 -82 137 36 -91 146 0
-27 -82 137 -36 -91 146 0
27 82 -137 36 91 -146 0
27 82 137 55 110 165 0
-27 82 137 -55 110 165 0
27 -82 137 55 -110 165 0
-27 -82 137 -55 -110 165 0
27 82 -137 55 110 -165 0
27 82 137 38 93 148 0
-27 82 137 -38 93 148 0
27 -82 137 38 -93 148 0
-27 -82 137 -38 -93 148 0
27 82 -137 38 93 -148 0
27 82 137 49 104 159 0
-27 82 137 -49 104 159 0
27 -82 137 49 -104 159 0
-27 -82 137 -49 -104 159 0
27 82 -137 49 104 -159 0
28 83 138 38 93 148 0
-28 83 138 -38 93 148 0
28 -83 138 38 -93 148 0
-28 -83 138 -38 -93 148 0
28 83 -138 38 93 -148 0
28 83 138 42 97 152 0
-28 83 138 -42 97 152 0
28 -83 138 42 -97 152 0
-28 -83 138 -42 -97 152 0
28 83 -138 42 97 -152 0
28 83 138 50 105 160 0
-28 83 138 -50 105 160 0
28 -83 138 50 -105 160 0
-28 -83 138 -50 -105 160 0
28 83 -138 50 105 -160 0
28 83 138 40 95 150 0
-28 83 138 -40 95 150 0
28 -83 138 40 -95 150 0
-28 -83 138 -40 -95 150 0
28 83 -138 40 95 -150 0
28 83 138 49 104 159 0
-28 83 138 -49 104 159 0
28 -83 138 49 -104 159 0
-28 -83 138 -49 -104 159 0
28 83 -138 49 104 -159 0
29 84 139 51 106 161 0
-29 84 139 -51 106 161 0
29 -84 139 51 -106 161 0
-29 -84 139 -51 -106 161 0
29 84 -139 51 106 -161 0
29 84 139 35 90 145 0
-29 84 139 -35 90 145 0
29 -84 139 35 -90 145 0
-29 -84 139 -35 -90 145 0
29 84 -139 35 90 -145 0
29 84 139 32 87 142 0
-29 84 139 -32 87 142 0
29 -84 139 32 -87 142 0
-29 -84 139 -32 -87 142 0
29 84 -139 32 87 -142 0
29 84 139 54 109 164 0
-29 84 139 -54 109 164 0
29 -84 139 54 -109 164 0
-29 -84 139 -54 -109 164 0
29 84 -139 54 109 -164 0
29 84 139 33 88 143 0
-29 84 139 -33 88 143 0
29 -84 139 33 -88 143 0
-29 -84 139 -33 -88 143 0
29 84 -139 33 88 -143 0
30 85 140 42 97 152 0
-30 85 140 -42 97 152 0
30 -85 140 42 -97 152 0
-30 -85 140 -42 -97 152 0
30 85 -140 42 97 -152 0
30 85 140 47 102 157 0
-30 85 140 -47 102 157 0
30 -85 140 47 -102 157 0
-30 -85 140 -47 -102 157 0
30 85 -140 47 102 -157 0
30 85 140 46 101 156 0
-30 85 140 -46 101 156 0
30 -85 140 46 -101 156 0
-30 -85 140 -46 -101 156 0
30 85 -140 46 101 -156 0
30 85 140 35 90 145 0
-30 85 140 -35 90 145 0
30 -85 140 35 -90 145 0
-30 -85 140 -35 -90 145 0
30 85 -140 35 90 -145 0
30 85 140 52 107 162 0
-30 85 140 -52 107 162 0
30 -85 140 52 -107 162 0
-30 -85 140 -52 -107 162 0
30 85 -140 52 107 -162 0
30 85 140 48 103 158 0
-30 85 140 -48 103 158 0
30 -85 140 48 -103 158 0
-30 -85 140 -48 -103 158 0
30 85 -140 48 103 -158 0
30 85 140 32 87 142 0
-30 85 140 -32 87 142 0
30 -85 140 32 -87 142 0
-30 -85 140 -32 -87 142 0
30 85 -140 32 87 -142 0
30 85 140 31 86 141 0
-30 85 140 -31 86 141 0
30 -85 140 31 -86 141 0
-30 -85 140 -31 -86 141 0
30 85 -140 31 86 -141 0
31 86 141 35 90 145 0
-31 86 141 -35 90 145 0
31 -86 141 35 -90 145 0
-31 -86 141 -35 -90 145 0
31 86 -141 35 90 -145 0
31 86 141 47 102 157 0
-31 86 141 -47 102 157 0
31 -86 141 47 -102 157 0
-31 -86 141 -47 -102 157 0
31 86 -141 47 102 -157 0
31 86 141 50 105 160 0
-31 86 141 -50 105 160 0
31 -86 141 50 -105 160 0
-31 -86 141 -50 -105 160 0
31 86 -141 50 105 -160 0
31 86 141 37 92 147 0
-31 86 141 -37 92 147 0
31 -86 141 37 -92 147 0
-31 -86 141 -37 -92 147 0
31 86 -141 37 92 -147 0
31 86 141 53 108 163 0
-31 86 141 -53 108 163 0
31 -86 141 53 -108 163 0
-31 -86 141 -53 -108 163 0
31 86 -141 53 108 -163 0
31 86 141 35 90 145 0
-31 86 141 -35 90 145 0
31 -86 141 35 -90 145 0
-31 -86 141 -35 -90 145 0
31 86 -141 35 90 -145 0
32 87 142 54 109 164 0
-32 87 142 -54 109 164 0
32 -87 142 54 -109 164 0
-32 -87 142 -54 -109 164 0
32 87 -142 54 109 -164 0
32 87 142 55 110 165 0
-32 87 142 -55 110 165 0
32 -87 142 55 -110 165 0
-32 -87 142 -55 -110 165 0
32 87 -142 55 110 -165 0
32 87 142 38 93 148 0
-32 87 142 -38 93 148 0
32 -87 142 38 -93 148 0
-32 -87 142 -38 -93 148 0
32 87 -142 38 93 -148 0
33 88 143 43 98 153 0
-33 88 143 -43 98 153 0
33 -88 143 43 -98 153 0
-33 -88 143 -43 -98 153 0
33 88 -143 43 98 -153 0
33 88 143 50 105 160 0
-33 88 143 -50 105 160 0
33 -88 143 50 -105 160 0
-33 -88 143 -50 -105 160 0
33 88 -143 50 105 -160 0
33 88 143 35 90 145 0
-33 88 143 -35 90 145 0
33 -88 143 35 -90 145 0
-33 -88 143 -35 -90 145 0
33 88 -143 35 90 -145 0
33 88 143 54 109 164 0
-33 88 143 -54 109 164 0
33 -88 143 54 -109 164 0
-33 -88 143 -54 -109 164 0
33 88 -143 54 109 -164 0
33 88 143 54 109 164 0
-33 88 143 -54 109 164 0
33 -88 143 54 -109 164 0
-33 -88 143 -54 -109 164 0
33 88 -143 54 109 -164 0
33 88 143 55 110 165 0
-33 88 143 -55 110 165 0
33 -88 143 55 -110 165 0
-33 -88 143 -55 -110 165 0
33 88 -143 55 110 -165 0
34 89 144 41 96 151 0
-34 89 144 -41 96 151 0
34 -89 144 41 -96 151 0
-34 -89 144 -41 -96 151 0
34 89 -144 41 96 -151 0
34 89 144 47 102 157 0
-34 89 144 -47 102 157 0
34 -89 144 47 -102 157 0
-34 -89 144 -47 -102 157 0
34 89 -144 47 102 -157 0
34 89 144 45 100 155 0
-34 89 144 -45 100 155 0
34 -89 144 45 -100 155 0
-34 -89 144 -45 -100 155 0
34 89 -144 45 100 -155 0
34 89 144 49 104 159 0
-34 89 144 -49 104 159 0
34 -89 144 49 -104 159 0
-34 -89 144 -49 -104 159 0
34 89 -144 49 104 -159 0
35 90 145 48 103 158 0
-35 90 145 -48 103 158 0
35 -90 145 48 -103 158 0
-35 -90 145 -48 -103 158 0
35 90 -145 48 103 -158 0
36 91 146 42 97 152 0
-36 91 146 -42 97 152 0
36 -91 146 42 -97 152 0
-36 -91 146 -42 -97 152 0
36 91 -146 42 97 -152 0
36 91 146 37 92 147 0
-36 91 146 -37 92 147 0
36 -91 146 37 -92 147 0
-36 -91 146 -37 -92 147 0
36 91 -146 37 92 -147 0
36 91 146 52 107 162 0
-36 91 146 -52 107 162 0
36 -91 146 52 -107 162 0
-36 -91 146 -52 -107 162 0
36 91 -146 52 107 -162 0
36 91 146 51 106 161 0
-36 91 146 -51 106 161 0
36 -91 146 51 -106 161 0
-36 -91 146 -51 -106 161 0
36 91 -146 51 106 -161 0
36 91 146 42 97 152 0
-36 91 146 -42 97 152 0
36 -91 146 42 -97 152 0
-36 -91 146 -42 -97 152 0
36 91 -146 42 97 -152 0
37 92 147 51 106 161 0
-37 92 147 -51 106 161 0
37 -92 147 51 -106 161 0
-37 -92 147 -51 -106 161 0
37 92 -147 51 106 -161 0
38 93 148 42 97 152 0
-38 93 148 -42 97 152 0
38 -93 148 42 -97 152 0
-38 -93 148 -42 -97 152 0
38 93 -148 42 97 -152 0
39 94 149 40 95 150 0
-39 94 149 -40 95 150 0
39 -94 149 40 -95 150 0
-39 -94 149 -40 -95 150 0
39 94 -149 40 95 -150 0
39 94 149 44 99 154 0
-39 94 149 -44 99 154 0
39 -94 149 44 -99 154 0
-39 -94 149 -44 -99 154 0
39 94 -149 44 99 -154 0
39 94 149 46 101 156 0
-39 94 149 -46 101 156 0
39 -94 149 46 -101 156 0
-39 -94 149 -46 -101 156 0
39 94 -149 46 101 -156 0
39 94 149 42 97 152 0
-39 94 149 -42 97 152 0
39 -94 149 42 -97 152 0
-39 -94 149 -42 -97 152 0
39 94 -149 42 97 -152 0
40 95 150 42 97 152 0
-40 95 150 -42 97 152 0
40 -95 150 42 -97 152 0
-40 -95 150 -42 -97 152 0
40 95 -150 42 97 -152 0
40 95 150 44 99 154 0
-40 95 150 -44 99 154 0
40 -95 150 44 -99 154 0
-40 -95 150 -44 -99 154 0
40 95 -150 44 99 -154 0
40 95 150 43 98 153 0
-40 95 150 -43 98 153 0
40 -95 150 43 -98 153 0
-40 -95 150 -43 -98 153 0
40 95 -150 43 98 -153 0
40 95 150 53 108 163 0
-40 95 150 -53 108 163 0
40 -95 150 53 -108 163 0
-40 -95 150 -53 -108 163 0
40 95 -150 53 108 -163 0
40 95 150 42 97 152 0
-40 95 150 -42 97 152 0
40 -95 150 42 -97 152 0
-40 -95 150 -42 -97 152 0
40 95 -150 42 97 -152 0
40 95 150 51 106 161 0
-40 95 150 -51 106 161 0
40 -95 150 51 -106 161 0
-40 -95 150 -51 -106 161 0
40 95 -150 51 106 -161 0
41 96 151 48 103 158 0
-41 96 151 -48 103 158 0
41 -96 151 48 -103 158 0
-41 -96 151 -48 -103 158 0
41 96 -151 48 103 -158 0
41 96 151 45 100 155 0
-41 96 151 -45 100 155 0
41 -96 151 45 -100 155 0
-41 -96 151 -45 -100 155 0
41 96 -151 45 100 -155 0
41 96 151 51 106 161 0
-41 96 151 -51 106 161 0
41 -96 151 51 -106 161 0
-41 -96 151 -51 -106 161 0
41 96 -151 51 106 -161 0
41 96 151 47 102 157 0
-41 96 151 -47 102 157 0
41 -96 151 47 -102 157 0
-41 -96 151 -47 -102 157 0
41 96 -151 47 102 -157 0
41 96 151 48 103 158 0
-41 96 151 -48 103 158 0
41 -96 151 48 -103 158 0
-41 -96 151 -48 -103 158 0
41 96 -151 48 103 -158 0
41 96 151 54 109 164 0
-41 96 151 -54 109 164 0
41 -96 151 54 -109 164 0
-41 -96 151 -54 -109 164 0
41 96 -151 54 109 -164 0
41 96 151 43 98 153 0
-41 96 151 -43 98 153 0
41 -96 151 43 -98 153 0
-41 -96 151 -43 -98 153 0
41 96 -151 43 98 -153 0
42 97 152 53 108 163 0
-42 97 152 -53 108 163 0
42 -97 152 53 -108 163 0
-42 -97 152 -53 -108 163 0
42 97 -152 53 108 -163 0
42 97 152 55 110 165 0
-42 97 152 -55 110 165 0
42 -97 152 55 -110 165 0
-42 -97 152 -55 -110 165 0
42 97 -152 55 110 -165 0
43 98 153 46 101 156 0
-43 98 153 -46 101 156 0
43 -98 153 46 -101 156 0
-43 -98 153 -46 -101 156 0
43 98 -153 46 101 -156 0
44 99 154 51 106 161 0
-44 99 154 -51 106 161 0
44 -99 154 51 -106 161 0
-44 -99 154 -51 -106 161 0
44 99 -154 51 106 -161 0
44 99 154 48 103 158 0
-44 99 154 -48 103 158 0
44 -99 154 48 -103 158 0
-44 -99 154 -48 -103 158 0
44 99 -154 48 103 -158 0
44 99 154 47 102 157 0
-44 99 154 -47 102 157 0
44 -99 154 47 -102 157 0
-44 -99 154 -47 -102 157 0
44 99 -154 47 102 -157 0
44 99 154 53 108 163 0
-44 99 154 -53 108 163 0
44 -99 154 53 -108 163 0
-44 -99 154 -53 -108 163 0
44 99 -154 53 108 -163 0
44 99 154 55 110 165 0
-44 99 154 -55 110 165 0
44 -99 154 55 -110 165 0
-44 -99 154 -55 -110 165 0
44 99 -154 55 110 -165 0
45 100 155 51 106 161 0
-45 100 155 -51 106 161 0
45 -100 155 51 -106 161 0
-45 -100 155 -51 -106 161 0
45 100 -155 51 106 -161 0
45 100 155 47 102 157 0
-45 100 155 -47 102 157 0
45 -100 155 47 -102 157 0
-45 -100 155 -47 -102 157 0
45 100 -155 47 102 -157 0
45 100 155 49 104 159 0
-45 100 155 -49 104 159 0
45 -100 155 49 -104 159 0
-45 -100 155 -49 -104 159 0
45 100 -155 49 104 -159 0
46 101 156 51 106 161 0
-46 101 156 -51 106 161 0
46 -101 156 51 -106 161 0
-46 -101 156 -51 -106 161 0
46 101 -156 51 106 -161 0
46 101 156 55 110 165 0
-46 101 156 -55 110 165 0
46 -101 156 55 -110 165 0
-46 -101 156 -55 -110 165 0
46 101 -156 55 110 -165 0
46 101 156 48 103 158 0
-46 101 156 -48 103 158 0
46 -101 156 48 -103 158 0
-46 -101 156 -48 -103 158 0
46 101 -156 48 103 -158 0
46 101 156 52 107 162 0
-46 101 156 -52 107 162 0
46 -101 156 52 -107 162 0
-46 -101 156 -52 -107 162 0
46 101 -156 52 107 -162 0
47 102 157 52 107 162 0
-47 102 157 -52 107 162 0
47 -102 157 52 -107 162 0
-47 -102 157 -52 -107 162 0
47 102 -157 52 107 -162 0
47 102 157 53 108 163 0
-47 102 157 -53 108 163 0
47 -102 157 53 -108 163 0
-47 -102 157 -53 -108 163 0
47 102 -157 53 108 -163 0
49 104 159 53 108 163 0
-49 104 159 -53 108 163 0
49 -104 159 53 -108 163 0
-49 -104 159 -53 -108 163 0
49 104 -159 53 108 -163 0
50 105 160 51 106 161 0
-50 105 160 -51 106 161 0
50 -105 160 51 -106 161 0
-50 -105 160 -51 -106 161 0
50 105 -160 51 106 -161 0
52 107 162 55 110 165 0
-52 107 162 -55 110 165 0
52 -107 162 55 -110 165 0
-52 -107 162 -55 -110 165 0
52 107 -162 55 110 -165 0
52 107 162 55 110 165 0
-52 107 162 -55 110 165 0
52 -107 162 55 -110 165 0
-52 -107 162 -55 -110 165 0
52 107 -162 55 110 -165 0
